(declare-const a Real)
(declare-const b Real)
(declare-const c Real)
(assert (= (+ a b c) 3))
(assert (not (<= (+ (* (/ -1 3) (pow (+ (* a b) (* a c) (* b c)) 2)) (* a b (pow c 2)) (* a c (pow b 2)) (* b c (pow a 2))) 0)))
(check-sat)
(get-model)
(exit)